3 
4 
5  20 36 51 
6  06 22 32 37 42 47 52 57 
7  02 07 12 17 22 27 32 37 42 47 52 57 
8  02 07 12 17 22 27 32 37 42 47 52 57 
9  02 07 12 17 22 27 32 37 42 47 53 59 
10  07 14 22 29 37 44 52 59 
11  07 14 22 29 37 44 52 59 
12  07 14 22 29 37 44 52 59 
13  08 15 23 30 37 45 53 
14  00 08 15 23 30 37 45 53 
15  00 08 13 18 22 28 33 38 43 48 52 58 
16  03 07 13 18 22 28 33 37 43 48 52 58 
17  03 07 13 18 22 28 33 37 43 48 52 58 
18  03 08 13 18 23 28 33 38 43 48 53 58 
19  03 09 15 22 29 37 44 52 59 
20  07 13 20 28 36 43 54 
21  09 16 24 39 54 
22  09 19 34 49 
23  05 19 
0 
